Optimal - objective value 852.41065200
      5 x6                     1         -33.668117848403
     10 x11                    1         153.163133948194
     18 x19                    1         184.466070103287
     39 x40                    1         13.5945228820508
     89 x90                    1         -124.433059879041
    249 x250                   1         68.974717793236
    399 x400                   1         -7.04108900734101
    447 x448                   1         -76.2688803101929
    878 x879                   1         1.67444270231074
    932 x933                   1         -109.156207699908
    955 x956                   1         -542.907271501154
   1066 x1067                  1         98.6772488655583
